(set-option :produce-models true); benchmark generated from python API
(set-info :status unknown)
(declare-fun l_0_0_7 () Real)
(declare-fun _a_0_ () Real)
(declare-fun l_0_0_9 () Real)
(declare-fun l_0_0_11 () Real)
(declare-fun l_0_0_8 () Real)
(declare-fun l_0_0_10 () Real)
(declare-fun l_0_0_2 () Real)
(declare-fun l_0_0_1 () Real)
(declare-fun _a_1_ () Real)
(declare-fun _a_2_ () Real)
(declare-fun l_0_0_12 () Real)
(declare-fun l_0_0_4 () Real)
(declare-fun _a_3_ () Real)
(declare-fun l_0_0_3 () Real)
(declare-fun l_0_0_5 () Real)
(declare-fun l_0_0_6 () Real)
(declare-fun l_0_1_7 () Real)
(declare-fun l_0_1_13 () Real)
(declare-fun l_0_1_1 () Real)
(declare-fun l_0_1_9 () Real)
(declare-fun l_0_1_8 () Real)
(declare-fun l_0_1_15 () Real)
(declare-fun l_0_1_14 () Real)
(declare-fun l_0_1_3 () Real)
(declare-fun l_0_1_2 () Real)
(declare-fun l_0_1_18 () Real)
(declare-fun l_0_1_17 () Real)
(declare-fun l_0_1_16 () Real)
(declare-fun l_0_1_12 () Real)
(declare-fun l_0_1_11 () Real)
(declare-fun l_0_1_10 () Real)
(declare-fun l_0_1_6 () Real)
(declare-fun l_0_1_5 () Real)
(declare-fun l_0_1_4 () Real)
(declare-fun l_0_2_7 () Real)
(declare-fun l_0_2_13 () Real)
(declare-fun l_0_2_1 () Real)
(declare-fun l_0_2_17 () Real)
(declare-fun l_0_2_15 () Real)
(declare-fun l_0_2_16 () Real)
(declare-fun l_0_2_14 () Real)
(declare-fun l_0_2_9 () Real)
(declare-fun l_0_2_11 () Real)
(declare-fun l_0_2_8 () Real)
(declare-fun l_0_2_10 () Real)
(declare-fun l_0_2_5 () Real)
(declare-fun l_0_2_3 () Real)
(declare-fun l_0_2_4 () Real)
(declare-fun l_0_2_2 () Real)
(declare-fun l_0_2_6 () Real)
(declare-fun l_0_2_18 () Real)
(declare-fun l_0_2_12 () Real)
(assert
 (= (- _a_0_ (* l_0_0_7 l_0_0_7)) 0.0))
(assert
 (let ((?x90 (- (- _a_1_ (* (* 4.0 l_0_0_1) l_0_0_2)) (* (* 2.0 l_0_0_10) l_0_0_8))))
 (= (- ?x90 (* (* 2.0 l_0_0_11) l_0_0_9)) 0.0)))
(assert
 (let ((?x120 (* l_0_0_9 l_0_0_9)))
 (let ((?x121 (- (- (+ _a_2_ (* l_0_0_1 l_0_0_1)) (* l_0_0_8 l_0_0_8)) ?x120)))
 (= ?x121 0.0))))
(assert
 (let ((?x137 (* l_0_0_12 l_0_0_12)))
 (let ((?x135 (* l_0_0_11 l_0_0_11)))
 (let ((?x133 (* l_0_0_10 l_0_0_10)))
 (let ((?x116 (* l_0_0_1 l_0_0_1)))
 (let ((?x136 (- (- (+ (- _a_3_ (* (* 4.0 l_0_0_1) l_0_0_4)) ?x116) ?x133) ?x135)))
 (= (- ?x136 ?x137) 0.0)))))))
(assert
 (let ((?x157 (* 2.0 l_0_0_1)))
 (let ((?x158 (* ?x157 l_0_0_2)))
 (= ?x158 0.0))))
(assert
 (let ((?x157 (* 2.0 l_0_0_1)))
 (let ((?x160 (* ?x157 l_0_0_4)))
 (let ((?x167 (- (- ?x160 (* (* 2.0 l_0_0_2) l_0_0_2)) (* (* 2.0 l_0_0_3) l_0_0_3))))
 (= ?x167 0.0)))))
(assert
 (let ((?x176 (* l_0_0_3 l_0_0_3)))
 (let ((?x170 (* l_0_0_2 l_0_0_2)))
 (let ((?x183 (+ ?x170 ?x176)))
 (= ?x183 0.0)))))
(assert
 (let ((?x187 (+ (* (* 2.0 l_0_0_2) l_0_0_4) (* (* 2.0 l_0_0_3) l_0_0_5))))
 (= ?x187 0.0)))
(assert
 (let ((?x199 (* l_0_0_6 l_0_0_6)))
 (let ((?x197 (* l_0_0_5 l_0_0_5)))
 (let ((?x195 (* l_0_0_4 l_0_0_4)))
 (let ((?x176 (* l_0_0_3 l_0_0_3)))
 (let ((?x170 (* l_0_0_2 l_0_0_2)))
 (let ((?x183 (+ ?x170 ?x176)))
 (= (+ (+ (+ ?x183 ?x195) ?x197) ?x199) 0.0))))))))
(assert
 (let ((?x157 (* 2.0 l_0_0_1)))
 (let ((?x158 (* ?x157 l_0_0_2)))
 (let ((?x209 (- (- ?x158 (* (* 4.0 l_0_0_2) l_0_0_4)) (* (* 4.0 l_0_0_3) l_0_0_5))))
 (= ?x209 0.0)))))
(assert
 (let ((?x157 (* 2.0 l_0_0_1)))
 (let ((?x160 (* ?x157 l_0_0_4)))
 (let ((?x228 (- (- ?x160 (* (* 2.0 l_0_0_4) l_0_0_4)) (* (* 2.0 l_0_0_5) l_0_0_5))))
 (= (- ?x228 (* (* 2.0 l_0_0_6) l_0_0_6)) 0.0)))))
(assert
 (let ((?x187 (+ (* (* 2.0 l_0_0_2) l_0_0_4) (* (* 2.0 l_0_0_3) l_0_0_5))))
 (= ?x187 0.0)))
(assert
 (let ((?x199 (* l_0_0_6 l_0_0_6)))
 (= (+ (+ (* l_0_0_4 l_0_0_4) (* l_0_0_5 l_0_0_5)) ?x199) 0.0)))
(assert
 (let ((?x257 (- (* (* (- 2.0) l_0_0_1) l_0_0_1) (* (* 2.0 l_0_0_10) l_0_0_7))))
 (= ?x257 0.0)))
(assert
 (= (* (* (- 2.0) l_0_0_7) l_0_0_8) 0.0))
(assert
 (>= l_0_0_1 0.0))
(assert
 (>= l_0_0_3 0.0))
(assert
 (>= l_0_0_6 0.0))
(assert
 (>= l_0_0_7 0.0))
(assert
 (>= l_0_0_9 0.0))
(assert
 (>= l_0_0_12 0.0))
(assert
 (let ((?x288 (+ (- (* (* (- _a_0_) l_0_1_1) l_0_1_1) (* l_0_1_13 l_0_1_13)) (* 1.0 (* l_0_1_7 l_0_1_7)))))
 (= (+ ?x288 3.0) 0.0)))
(assert
 (let ((?x310 (* l_0_1_15 l_0_1_15)))
 (let ((?x308 (* l_0_1_14 l_0_1_14)))
 (let ((?x307 (- (* (- _a_0_) (+ (* l_0_1_2 l_0_1_2) (* l_0_1_3 l_0_1_3))) (* (* _a_2_ l_0_1_1) l_0_1_1))))
 (let ((?x317 (+ (+ (- (- ?x307 ?x308) ?x310) (* 1.0 (* l_0_1_8 l_0_1_8))) (* 1.0 (* l_0_1_9 l_0_1_9)))))
 (= (- ?x317 1.0) 0.0))))))
(assert
 (let ((?x365 (* l_0_1_18 l_0_1_18)))
 (let ((?x363 (* l_0_1_17 l_0_1_17)))
 (let ((?x361 (* l_0_1_16 l_0_1_16)))
 (let ((?x346 (* l_0_1_6 l_0_1_6)))
 (let ((?x347 (+ (+ (* l_0_1_4 l_0_1_4) (* l_0_1_5 l_0_1_5)) ?x346)))
 (let ((?x280 (- _a_0_)))
 (let ((?x354 (+ (- (* ?x280 ?x347) (* (* _a_3_ l_0_1_1) l_0_1_1)) (* 1.0 (* l_0_1_10 l_0_1_10)))))
 (let ((?x360 (+ (+ ?x354 (* 1.0 (* l_0_1_11 l_0_1_11))) (* 1.0 (* l_0_1_12 l_0_1_12)))))
 (= (- (- (- (- ?x360 ?x361) ?x363) ?x365) 1.0) 0.0))))))))))
(assert
 (let ((?x398 (+ (* (* (* (- 2.0) _a_0_) l_0_1_1) l_0_1_4) (* (* 2.0 l_0_1_10) l_0_1_7))))
 (= (+ (- ?x398 (* (* 2.0 l_0_1_13) l_0_1_16)) 2.0) 0.0)))
(assert
 (let ((?x418 (- (* (* (* (- 2.0) _a_0_) l_0_1_1) l_0_1_2) (* (* 2.0 l_0_1_13) l_0_1_14))))
 (= (+ ?x418 (* (* 2.0 l_0_1_7) l_0_1_8)) 0.0)))
(assert
 (let ((?x442 (+ (* (* 2.0 l_0_1_2) l_0_1_4) (* (* 2.0 l_0_1_3) l_0_1_5))))
 (let ((?x280 (- _a_0_)))
 (let ((?x448 (+ (- (* ?x280 ?x442) (* (* _a_1_ l_0_1_1) l_0_1_1)) (* (* 2.0 l_0_1_10) l_0_1_8))))
 (let ((?x454 (- (+ ?x448 (* (* 2.0 l_0_1_11) l_0_1_9)) (* (* 2.0 l_0_1_14) l_0_1_16))))
 (= (- ?x454 (* (* 2.0 l_0_1_15) l_0_1_17)) 0.0))))))
(assert
 (let ((?x499 (- (* (* (* (- 2.0) _a_1_) l_0_1_1) l_0_1_2) (* (* (* 2.0 _a_2_) l_0_1_1) l_0_1_4))))
 (= ?x499 0.0)))
(assert
 (let ((?x516 (- (* (* (* (- 2.0) _a_1_) l_0_1_1) l_0_1_4) (* (* (* 2.0 _a_3_) l_0_1_1) l_0_1_2))))
 (= ?x516 0.0)))
(assert
 (let ((?x442 (+ (* (* 2.0 l_0_1_2) l_0_1_4) (* (* 2.0 l_0_1_3) l_0_1_5))))
 (let ((?x533 (- (* (- _a_1_) (+ (* l_0_1_2 l_0_1_2) (* l_0_1_3 l_0_1_3))) (* _a_2_ ?x442))))
 (= ?x533 0.0))))
(assert
 (let ((?x346 (* l_0_1_6 l_0_1_6)))
 (let ((?x347 (+ (+ (* l_0_1_4 l_0_1_4) (* l_0_1_5 l_0_1_5)) ?x346)))
 (let ((?x442 (+ (* (* 2.0 l_0_1_2) l_0_1_4) (* (* 2.0 l_0_1_3) l_0_1_5))))
 (let ((?x530 (- _a_1_)))
 (let ((?x565 (- (- (* ?x530 ?x442) (* _a_2_ ?x347)) (* _a_3_ (+ (* l_0_1_2 l_0_1_2) (* l_0_1_3 l_0_1_3))))))
 (= ?x565 0.0)))))))
(assert
 (let ((?x442 (+ (* (* 2.0 l_0_1_2) l_0_1_4) (* (* 2.0 l_0_1_3) l_0_1_5))))
 (let ((?x346 (* l_0_1_6 l_0_1_6)))
 (let ((?x347 (+ (+ (* l_0_1_4 l_0_1_4) (* l_0_1_5 l_0_1_5)) ?x346)))
 (let ((?x530 (- _a_1_)))
 (= (- (* ?x530 ?x347) (* _a_3_ ?x442)) 0.0))))))
(assert
 (= (* (* (* (- 2.0) _a_2_) l_0_1_1) l_0_1_2) 0.0))
(assert
 (= (* (- _a_2_) (+ (* l_0_1_2 l_0_1_2) (* l_0_1_3 l_0_1_3))) 0.0))
(assert
 (= (* (* (* (- 2.0) _a_3_) l_0_1_1) l_0_1_4) 0.0))
(assert
 (let ((?x346 (* l_0_1_6 l_0_1_6)))
 (let ((?x347 (+ (+ (* l_0_1_4 l_0_1_4) (* l_0_1_5 l_0_1_5)) ?x346)))
 (= (* (- _a_3_) ?x347) 0.0))))
(assert
 (>= l_0_1_1 0.0))
(assert
 (>= l_0_1_3 0.0))
(assert
 (>= l_0_1_6 0.0))
(assert
 (>= l_0_1_7 0.0))
(assert
 (>= l_0_1_9 0.0))
(assert
 (>= l_0_1_12 0.0))
(assert
 (>= l_0_1_13 0.0))
(assert
 (>= l_0_1_15 0.0))
(assert
 (>= l_0_1_18 0.0))
(assert
 (let ((?x689 (* l_0_2_13 l_0_2_13)))
 (let ((?x687 (* (/ 25897921.0 2500000000000000.0) _a_3_)))
 (let ((?x684 (* (/ 1.0 10000.0) _a_2_)))
 (let ((?x681 (* (/ 5089.0 5000000000.0) _a_1_)))
 (let ((?x685 (+ (+ (+ (* (* (- _a_0_) l_0_2_1) l_0_2_1) _a_0_) ?x681) ?x684)))
 (= (- (- (+ ?x685 ?x687) ?x689) (* (* 1.0 l_0_2_7) l_0_2_7)) 0.0)))))))
(assert
 (let ((?x722 (* (/ 207280909786429.0 10000000000000000.0) _a_3_)))
 (let ((?x719 (* (/ 1036521.0 50000000.0) _a_2_)))
 (let ((?x716 (* (/ 12497251686731.0 12500000000000.0) _a_1_)))
 (let ((?x710 (+ (* (* 2.0 l_0_2_2) l_0_2_4) (* (* 2.0 l_0_2_3) l_0_2_5))))
 (let ((?x280 (- _a_0_)))
 (let ((?x720 (- (+ (- (* ?x280 ?x710) (* (* _a_1_ l_0_2_1) l_0_2_1)) ?x716) ?x719)))
 (let ((?x729 (- (- (+ ?x720 ?x722) (* (* 2.0 l_0_2_10) l_0_2_8)) (* (* 2.0 l_0_2_11) l_0_2_9))))
 (let ((?x735 (- (- ?x729 (* (* 2.0 l_0_2_14) l_0_2_16)) (* (* 2.0 l_0_2_15) l_0_2_17))))
 (= ?x735 0.0))))))))))
(assert
 (let ((?x798 (* l_0_2_15 l_0_2_15)))
 (let ((?x796 (* l_0_2_14 l_0_2_14)))
 (let ((?x794 (* (/ 1112484251041.0 10000000000000000.0) _a_3_)))
 (let ((?x787 (* (/ 527621.0 50000000.0) _a_1_)))
 (let ((?x788 (+ (* (- _a_0_) (+ (* l_0_2_2 l_0_2_2) (* l_0_2_3 l_0_2_3))) ?x787)))
 (let ((?x797 (- (+ (+ (- ?x788 (* (* _a_2_ l_0_2_1) l_0_2_1)) _a_2_) ?x794) ?x796)))
 (let ((?x805 (- (- (- ?x797 ?x798) (* (* 1.0 l_0_2_8) l_0_2_8)) (* (* 1.0 l_0_2_9) l_0_2_9))))
 (= ?x805 0.0)))))))))
(assert
 (let ((?x839 (* (/ 19404709641.0 50000000000000.0) _a_3_)))
 (let ((?x840 (+ (- (* (/ 18721.0 1000000.0) _a_1_) (* (* (* 2.0 _a_2_) l_0_2_1) l_0_2_2)) ?x839)))
 (= ?x840 0.0))))
(assert
 (let ((?x858 (* (/ 18721.0 500000.0) _a_2_)))
 (let ((?x856 (- (- (* (* (* (- 2.0) _a_1_) l_0_2_1) l_0_2_2) (* (/ 51108943441.0 50000000000000.0) _a_1_)) (* (* (* 2.0 _a_2_) l_0_2_1) l_0_2_4))))
 (= (+ (- ?x856 ?x858) (* (/ 93562026018491.0 2500000000000000.0) _a_3_)) 0.0))))
(assert
 (let ((?x897 (* (/ 5274855369.0 2500000000000000.0) _a_3_)))
 (let ((?x894 (* (/ 1.0 50.0) _a_2_)))
 (let ((?x895 (+ (+ (* (* (* (- 2.0) _a_0_) l_0_2_1) l_0_2_2) (* (/ 2054321.0 10000000000.0) _a_1_)) ?x894)))
 (let ((?x904 (- (- (+ ?x895 ?x897) (* (* 2.0 l_0_2_13) l_0_2_14)) (* (* 2.0 l_0_2_7) l_0_2_8))))
 (= ?x904 0.0))))))
(assert
 (let ((?x933 (* (/ 31698152009291.0 25000000000000000.0) _a_3_)))
 (let ((?x927 (* (/ 221771169.0 250000000000.0) _a_2_)))
 (let ((?x928 (+ (- (* (* (* (- 2.0) _a_1_) l_0_2_1) l_0_2_4) (* (/ 37409384775463.0 2000000000000000.0) _a_1_)) ?x927)))
 (= (- (- ?x928 (* (* (* 2.0 _a_3_) l_0_2_1) l_0_2_2)) ?x933) 0.0)))))
(assert
 (let ((?x968 (* (/ 38758637278219.0 1250000000000000000.0) _a_3_)))
 (let ((?x710 (+ (* (* 2.0 l_0_2_2) l_0_2_4) (* (* 2.0 l_0_2_3) l_0_2_5))))
 (let ((?x963 (* (/ 350475841.0 500000000000.0) _a_1_)))
 (let ((?x964 (- (* (- _a_1_) (+ (* l_0_2_2 l_0_2_2) (* l_0_2_3 l_0_2_3))) ?x963)))
 (= (- (- ?x964 (* _a_2_ ?x710)) ?x968) 0.0))))))
(assert
 (let ((?x1023 (* (/ 700086027943143.0 1000000000000000000.0) _a_3_)))
 (let ((?x1018 (* (/ 350475841.0 1000000000000.0) _a_2_)))
 (let ((?x1013 (* l_0_2_6 l_0_2_6)))
 (let ((?x1014 (+ (+ (* l_0_2_4 l_0_2_4) (* l_0_2_5 l_0_2_5)) ?x1013)))
 (let ((?x1008 (* (/ 14823540664547.0 500000000000000000.0) _a_1_)))
 (let ((?x710 (+ (* (* 2.0 l_0_2_2) l_0_2_4) (* (* 2.0 l_0_2_3) l_0_2_5))))
 (let ((?x530 (- _a_1_)))
 (let ((?x1021 (- (+ (- (+ (* ?x530 ?x710) ?x1008) (* _a_2_ ?x1014)) ?x1018) (* _a_3_ (+ (* l_0_2_2 l_0_2_2) (* l_0_2_3 l_0_2_3))))))
 (= (- ?x1021 ?x1023) 0.0))))))))))
(assert
 (let ((?x710 (+ (* (* 2.0 l_0_2_2) l_0_2_4) (* (* 2.0 l_0_2_3) l_0_2_5))))
 (let ((?x1071 (* (/ 4736413.0 500000000000.0) _a_2_)))
 (let ((?x1068 (* (/ 104315317271.0 250000000000000000.0) _a_1_)))
 (let ((?x1013 (* l_0_2_6 l_0_2_6)))
 (let ((?x1014 (+ (+ (* l_0_2_4 l_0_2_4) (* l_0_2_5 l_0_2_5)) ?x1013)))
 (let ((?x530 (- _a_1_)))
 (let ((?x1077 (+ (- (- (- (* ?x530 ?x1014) ?x1068) ?x1071) (* _a_3_ ?x710)) (* (/ 47339458409133.0 2500000000000000000.0) _a_3_))))
 (= ?x1077 0.0)))))))))
(assert
 (let ((?x1126 (* (/ 40707679574001.0 200000000000000000.0) _a_3_)))
 (let ((?x1123 (* (/ 5089.0 25000000.0) _a_2_)))
 (let ((?x1124 (- (+ (* (* (* (- 2.0) _a_0_) l_0_2_1) l_0_2_4) (* (/ 124973785829.0 12500000000000.0) _a_1_)) ?x1123)))
 (let ((?x1131 (- (- (+ ?x1124 ?x1126) (* (* 2.0 l_0_2_10) l_0_2_7)) (* (* 2.0 l_0_2_13) l_0_2_16))))
 (= ?x1131 0.0))))))
(assert
 (let ((?x1183 (* l_0_2_18 l_0_2_18)))
 (let ((?x1181 (* l_0_2_17 l_0_2_17)))
 (let ((?x1179 (* l_0_2_16 l_0_2_16)))
 (let ((?x1168 (* (/ 12497347111777.0 12500000000000.0) _a_3_)))
 (let ((?x1162 (* (/ 27162921.0 250000000000.0) _a_2_)))
 (let ((?x1159 (* (/ 50884213212401.0 5000000000000000.0) _a_1_)))
 (let ((?x1013 (* l_0_2_6 l_0_2_6)))
 (let ((?x1014 (+ (+ (* l_0_2_4 l_0_2_4) (* l_0_2_5 l_0_2_5)) ?x1013)))
 (let ((?x280 (- _a_0_)))
 (let ((?x1166 (- (+ (- (* ?x280 ?x1014) ?x1159) ?x1162) (* (* _a_3_ l_0_2_1) l_0_2_1))))
 (let ((?x1175 (- (- (+ ?x1166 ?x1168) (* (* 1.0 l_0_2_10) l_0_2_10)) (* (* 1.0 l_0_2_11) l_0_2_11))))
 (let ((?x1184 (- (- (- (- ?x1175 (* (* 1.0 l_0_2_12) l_0_2_12)) ?x1179) ?x1181) ?x1183)))
 (= ?x1184 0.0))))))))))))))
(assert
 (let ((?x1239 (* (/ 51495149512751.0 5000000000000000000.0) _a_3_)))
 (let ((?x1237 (- (- (* (/ 63230023432961.0 250000000000000000.0) _a_1_) (* (/ 1287517.0 250000000000.0) _a_2_)) (* (* (* 2.0 _a_3_) l_0_2_1) l_0_2_4))))
 (= (+ ?x1237 ?x1239) 0.0))))
(assert
 (let ((?x1264 (* (/ 127977891313853.0 1000000000000000000000.0) _a_3_)))
 (let ((?x1013 (* l_0_2_6 l_0_2_6)))
 (let ((?x1014 (+ (+ (* l_0_2_4 l_0_2_4) (* l_0_2_5 l_0_2_5)) ?x1013)))
 (let ((?x1259 (* (/ 64009.0 1000000000000.0) _a_2_)))
 (let ((?x1257 (* (/ 977225403.0 500000000000000000.0) _a_1_)))
 (let ((?x1260 (+ ?x1257 ?x1259)))
 (= (- (- ?x1260 (* _a_3_ ?x1014)) ?x1264) 0.0))))))))
(assert
 (= (+ (* (/ 6561258219361.0 1000000000000000000.0) _a_1_) (* (/ 6393154170117.0 8000000000000000000.0) _a_3_)) 0.0))
(assert
 (= (- (* (- (/ 266011163319.0 1000000000000000000.0)) _a_1_) (* (/ 180197214150431.0 10000000000000000000000.0) _a_3_)) 0.0))
(assert
 (= (+ (* (/ 3594937467.0 1000000000000000000.0) _a_1_) (* (/ 22343206019563.0 125000000000000000000000.0) _a_3_)) 0.0))
(assert
 (= (- (* (- (/ 16194277.0 1000000000000000000.0)) _a_1_) (* (/ 82412675653.0 125000000000000000000000.0) _a_3_)) 0.0))
(assert
 (let ((?x1331 (* (/ 350475841.0 1000000000000.0) _a_3_)))
 (let ((?x1332 (+ (* (- _a_2_) (+ (* l_0_2_2 l_0_2_2) (* l_0_2_3 l_0_2_3))) ?x1331)))
 (= ?x1332 0.0))))
(assert
 (= (* (- (/ 6561258219361.0 500000000000000000.0)) _a_3_) 0.0))
(assert
 (= (* (/ 122833315124657.0 1000000000000000000000.0) _a_3_) 0.0))
(assert
 (= (* (- (/ 663999331799333.0 100000000000000000000000.0)) _a_3_) 0.0))
(assert
 (= (* (/ 67300824319707.0 500000000000000000000000.0) _a_3_) 0.0))
(assert
 (= (* (- (/ 303173059717.0 250000000000000000000000.0)) _a_3_) 0.0))
(assert
 (= (* (/ 4097152081.0 1000000000000000000000000.0) _a_3_) 0.0))
(assert
 (>= l_0_2_1 0.0))
(assert
 (>= l_0_2_3 0.0))
(assert
 (>= l_0_2_6 0.0))
(assert
 (>= l_0_2_7 0.0))
(assert
 (>= l_0_2_9 0.0))
(assert
 (>= l_0_2_12 0.0))
(assert
 (>= l_0_2_13 0.0))
(assert
 (>= l_0_2_15 0.0))
(assert
 (>= l_0_2_18 0.0))
(check-sat)
(get-model)